
Gurobi 11.0.0 (linux64) logging started Thu Sep 19 18:19:43 2024

Set parameter LogFile to value "/lustre1/scratch/348/vsc34888/JointResearch/05.Models/06.Benchmarking/L.Cont_Investments_per_hour/IEEE118_mod1_ByStages_nc150/openStarNet_IEEE118_mod1_ByStages_nc150.log"
Set parameter Method to value 2
Set parameter MIPFocus to value 1
Set parameter Presolve to value 2
Set parameter RINS to value 100
Set parameter MIPGap to value 0.01
Set parameter Threads to value 36
Set parameter TimeLimit to value 259200
Set parameter IterationLimit to value 760000000
Gurobi Optimizer version 11.0.0 build v11.0.0rc2 (linux64 - "Rocky Linux 8.9 (Green Obsidian)")

CPU model: Intel(R) Xeon(R) Gold 6240 CPU @ 2.60GHz, instruction set [SSE2|AVX|AVX2|AVX512]
Thread count: 36 physical cores, 36 logical processors, using up to 36 threads

Optimize a model with 213153 rows, 157344 columns and 548694 nonzeros
Model fingerprint: 0x5cea6755
Variable types: 157310 continuous, 34 integer (34 binary)
Coefficient statistics:
  Matrix range     [3e-04, 9e+03]
  Objective range  [1e+00, 1e+00]
  Bounds range     [1e-04, 3e+00]
  RHS range        [2e-04, 3e+00]
Presolve removed 144160 rows and 72519 columns
Presolve time: 0.96s
Presolved: 68993 rows, 84825 columns, 252514 nonzeros
Variable types: 84791 continuous, 34 integer (34 binary)
Root relaxation presolved: 68993 rows, 84825 columns, 252514 nonzeros

Root barrier log...

Ordering time: 0.02s

Barrier statistics:
 Dense cols : 34
 AA' NZ     : 3.123e+05
 Factor NZ  : 1.236e+06 (roughly 70 MB of memory)
 Factor Ops : 2.753e+07 (less than 1 second per iteration)
 Threads    : 35

                  Objective                Residual
Iter       Primal          Dual         Primal    Dual     Compl     Time
   0   8.99726326e+06 -1.62661409e+09  1.57e+01 1.93e+03  3.52e+04     1s
   1   2.20061558e+06 -6.20895089e+08  3.50e+00 3.91e-08  7.32e+03     2s
   2   5.81866369e+05 -1.84158263e+08  6.16e-01 2.73e-08  1.37e+03     2s
   3   3.27204344e+05 -5.23528689e+07  1.35e-01 6.19e-09  3.11e+02     2s
   4   2.33290441e+05 -8.17832218e+06  9.72e-03 7.51e-10  4.24e+01     2s
   5   1.82293295e+05 -3.52669966e+06  3.48e-03 3.22e-10  1.84e+01     2s
   6   1.16321673e+05 -9.71231394e+05  1.21e-03 7.76e-11  5.36e+00     2s
   7   6.50564588e+04 -2.92076090e+05  5.33e-04 4.18e-11  1.76e+00     2s
   8   3.71113909e+04 -1.12158624e+05  2.56e-04 8.27e-12  7.34e-01     2s
   9   2.14141514e+04 -4.78531301e+04  1.33e-04 7.28e-12  3.40e-01     2s
  10   1.20795874e+04 -9.34426552e+03  6.44e-05 3.93e-12  1.05e-01     2s
  11   6.70917619e+03 -4.99774108e+03  3.16e-05 3.64e-12  5.75e-02     2s
  12   4.58675926e+03 -2.05012879e+03  1.89e-05 6.39e-12  3.26e-02     2s
  13   3.53301525e+03 -8.77704408e+02  1.29e-05 3.64e-12  2.17e-02     2s
  14   2.58145022e+03 -1.36631071e+02  7.62e-06 1.82e-12  1.34e-02     2s
  15   2.06750567e+03  3.61669650e+02  4.88e-06 2.18e-12  8.38e-03     2s
  16   1.74088954e+03  6.92742249e+02  3.24e-06 3.64e-12  5.15e-03     2s
  17   1.42390390e+03  8.87379147e+02  1.64e-06 3.64e-12  2.64e-03     2s
  18   1.28318831e+03  9.88511102e+02  9.19e-07 1.82e-12  1.45e-03     2s
  19   1.20074368e+03  1.02365851e+03  5.01e-07 3.64e-12  8.70e-04     2s
  20   1.15790680e+03  1.05217231e+03  2.89e-07 3.64e-12  5.19e-04     2s
  21   1.13402134e+03  1.06951341e+03  1.72e-07 7.28e-12  3.17e-04     2s
  22   1.12410518e+03  1.07803464e+03  1.25e-07 7.28e-12  2.26e-04     2s
  23   1.11207881e+03  1.08951931e+03  6.96e-08 7.28e-12  1.11e-04     2s
  24   1.10588306e+03  1.09194723e+03  4.11e-08 3.64e-12  6.85e-05     2s
  25   1.10200692e+03  1.09403018e+03  2.35e-08 3.64e-12  3.92e-05     2s
  26   1.09921995e+03  1.09570280e+03  1.09e-08 7.28e-12  1.73e-05     2s
  27   1.09802141e+03  1.09631347e+03  5.70e-09 3.64e-12  8.39e-06     2s
  28   1.09753834e+03  1.09652437e+03  3.61e-09 5.46e-12  4.98e-06     2s
  29   1.09712932e+03  1.09661995e+03  1.85e-09 7.28e-12  2.50e-06     2s
  30   1.09686164e+03  1.09666373e+03  7.18e-10 7.28e-12  9.72e-07     2s
  31   1.09673428e+03  1.09667781e+03  1.87e-10 3.64e-12  2.77e-07     2s
  32   1.09669184e+03  1.09668605e+03  5.15e-10 7.28e-12  2.85e-08     3s
  33   1.09668803e+03  1.09668767e+03  5.51e-09 3.64e-12  1.76e-09     3s
  34   1.09668781e+03  1.09668780e+03  2.40e-09 3.64e-12  8.21e-11     3s
  35   1.09668781e+03  1.09668781e+03  1.11e-10 3.64e-12  1.44e-12     3s

Barrier solved model in 35 iterations and 2.64 seconds (2.81 work units)
Optimal objective 1.09668781e+03


Root relaxation: objective 1.096688e+03, 5257 iterations, 2.48 seconds (2.09 work units)

    Nodes    |    Current Node    |     Objective Bounds      |     Work
 Expl Unexpl |  Obj  Depth IntInf | Incumbent    BestBd   Gap | It/Node Time

     0     0 1096.68781    0   23          - 1096.68781      -     -    4s
H    0     0                    6417.6867983 1096.68781  82.9%     -    8s
H    0     0                    2824.2765111 1096.68781  61.2%     -   13s
     0     0 1115.86167    0   23 2824.27651 1115.86167  60.5%     -   23s
     0     0 1115.91752    0   23 2824.27651 1115.91752  60.5%     -   23s
     0     0 1117.70903    0   22 2824.27651 1117.70903  60.4%     -   26s
     0     0 1117.78807    0   22 2824.27651 1117.78807  60.4%     -   31s
     0     0 1117.79037    0   22 2824.27651 1117.79037  60.4%     -   31s
     0     0 1117.79047    0   22 2824.27651 1117.79047  60.4%     -   31s
     0     0 1119.76767    0   20 2824.27651 1119.76767  60.4%     -   37s
     0     0 1119.77721    0   20 2824.27651 1119.77721  60.4%     -   37s
     0     0 1119.77754    0   20 2824.27651 1119.77754  60.4%     -   38s
     0     0 1119.96966    0   19 2824.27651 1119.96966  60.3%     -   42s
     0     0 1119.97080    0   19 2824.27651 1119.97080  60.3%     -   42s
     0     0 1120.00004    0   19 2824.27651 1120.00004  60.3%     -   45s
H    0     0                    1254.7494203 1120.00004  10.7%     -  590s
     0     2 1120.00004    0   19 1254.74942 1120.00004  10.7%     -  592s
     1     4 1145.66623    1   18 1254.74942 1120.14486  10.7%  6126  600s
     3     8 1226.73618    2   18 1254.74942 1143.67321  8.85%  6073  612s
     7    16 1252.19933    3   18 1254.74942 1154.87145  7.96%  4637  624s
    15    22     cutoff    4      1254.74942 1162.07245  7.39%  4262  651s
    31    38 1174.90334    5   16 1254.74942 1169.62865  6.78%  3937  666s
    53    54 1183.99049    6   16 1254.74942 1175.18043  6.34%  3963  696s
    89    66 1202.87986    7   15 1254.74942 1184.07609  5.63%  3691  732s
   125    90     cutoff    8      1254.74942 1185.68540  5.50%  4155  761s
   161   100 1212.60281    8   14 1254.74942 1185.68540  5.50%  3754  783s
   197   112 1218.94800    9   13 1254.74942 1190.30380  5.14%  3316  809s
   244   127     cutoff   10      1254.74942 1190.30380  5.14%  2983  820s
   293   137 1223.31331   10   12 1254.74942 1190.30380  5.14%  2651  850s
   338   139 1230.55427   12    9 1254.74942 1190.30380  5.14%  2591  878s
   394   153 1247.26584   13    9 1254.74942 1190.30380  5.14%  2542  906s
   470   142 1248.40035   14    8 1254.74942 1190.30380  5.14%  2310  931s
   541   134     cutoff   16      1254.74942 1190.95585  5.08%  2149  949s
   625   141 1213.97210    9   13 1254.74942 1190.95585  5.08%  1997  974s
   702   130 1221.12946   10   12 1254.74942 1190.95585  5.08%  1932  993s
   793   126 1236.39968   12   10 1254.74942 1190.95585  5.08%  1807 1017s
   890   109     cutoff   14      1254.74942 1190.95585  5.08%  1720 1050s
   972    64     cutoff   12      1254.74942 1190.95585  5.08%  1714 1078s
  1071    37 1251.64666   10   10 1254.74942 1190.95585  5.08%  1658 1098s
  1152    29 1219.25541    8   14 1254.74942 1190.95585  5.08%  1635 1130s
  1204    22 1252.06264    9   12 1254.74942 1190.95585  5.08%  1628 1160s
  1237    12     cutoff   10      1254.74942 1193.49456  4.88%  1643 1169s
  1269    14     cutoff    8      1254.74942 1206.25533  3.86%  1630 1174s
  1289    12     cutoff    9      1254.74942 1216.19333  3.07%  1630 1194s
  1315     5     cutoff   12      1254.74942 1219.47791  2.81%  1627 1203s
  1334     0     cutoff   13      1254.74942 1233.72342  1.68%  1617 1205s

Cutting planes:
  Implied bound: 336
  MIR: 754
  Flow cover: 11
  RLT: 2
  Relax-and-lift: 2

Explored 1343 nodes (2176317 simplex iterations) in 1205.68 seconds (1438.97 work units)
Thread count was 36 (of 36 available processors)

Solution count 3: 1254.75 2824.28 6417.69 

Optimal solution found (tolerance 1.00e-02)
Best objective 1.254749420289e+03, best bound 1.254749420289e+03, gap 0.0000%

Gurobi 11.0.0 (linux64) logging started Thu Sep 19 18:40:29 2024

Set parameter LogFile to value "/lustre1/scratch/348/vsc34888/JointResearch/05.Models/06.Benchmarking/L.Cont_Investments_per_hour/IEEE118_mod1_ByStages_nc150/openStarNet_IEEE118_mod1_ByStages_nc150.log"
Set parameter Method to value 2
Set parameter MIPFocus to value 1
Set parameter Presolve to value 2
Set parameter RINS to value 100
Set parameter MIPGap to value 0.01
Set parameter Threads to value 36
Set parameter TimeLimit to value 259200
Set parameter IterationLimit to value 760000000
Gurobi Optimizer version 11.0.0 build v11.0.0rc2 (linux64 - "Rocky Linux 8.9 (Green Obsidian)")

CPU model: Intel(R) Xeon(R) Gold 6240 CPU @ 2.60GHz, instruction set [SSE2|AVX|AVX2|AVX512]
Thread count: 36 physical cores, 36 logical processors, using up to 36 threads

Optimize a model with 213153 rows, 157310 columns and 528260 nonzeros
Model fingerprint: 0x2dbbf7ff
Coefficient statistics:
  Matrix range     [3e-04, 9e+03]
  Objective range  [1e+00, 1e+00]
  Bounds range     [1e-04, 3e+00]
  RHS range        [2e-04, 3e+02]
Presolve removed 158510 rows and 68674 columns
Presolve time: 0.31s
Presolved: 54643 rows, 89086 columns, 213957 nonzeros

Ordering time: 0.01s

Barrier statistics:
 AA' NZ     : 1.859e+05
 Factor NZ  : 7.378e+05 (roughly 60 MB of memory)
 Factor Ops : 1.103e+07 (less than 1 second per iteration)
 Threads    : 36

                  Objective                Residual
Iter       Primal          Dual         Primal    Dual     Compl     Time
   0   1.50852449e+07 -8.88172417e+08  9.38e+01 1.89e+02  1.82e+04     0s
   1   1.69420943e+06 -2.70615989e+08  9.04e+00 1.85e-12  2.40e+03     0s
   2   4.80110322e+05 -4.84716963e+07  1.64e+00 1.95e-12  3.67e+02     0s
   3   2.19025585e+05 -6.61544025e+06  5.29e-02 1.47e-12  3.68e+01     0s
   4   1.24937984e+05 -1.04084690e+06  1.71e-03 1.25e-12  6.00e+00     1s
   5   6.67136002e+04 -3.07607035e+05  6.11e-04 4.55e-13  1.92e+00     1s
   6   2.26884089e+04 -8.81449392e+04  1.23e-04 4.55e-13  5.70e-01     1s
   7   1.20610676e+04 -3.66119446e+04  4.74e-05 4.55e-13  2.50e-01     1s
   8   7.97392352e+03 -1.37549374e+04  2.48e-05 2.27e-13  1.12e-01     1s
   9   4.92697795e+03 -5.31060294e+03  1.19e-05 4.55e-13  5.26e-02     1s
  10   3.49787140e+03 -2.40780571e+03  6.76e-06 4.55e-13  3.03e-02     1s
  11   2.63042692e+03 -2.59725384e+02  4.00e-06 2.27e-13  1.49e-02     1s
  12   1.89451056e+03  5.64760306e+02  1.74e-06 2.27e-13  6.83e-03     1s
  13   1.58109488e+03  8.63677016e+02  8.35e-07 2.27e-13  3.69e-03     1s
  14   1.47822367e+03  1.02229648e+03  5.60e-07 2.27e-13  2.34e-03     1s
  15   1.40357592e+03  1.10628528e+03  3.66e-07 2.27e-13  1.53e-03     1s
  16   1.34096482e+03  1.16210039e+03  2.06e-07 4.55e-13  9.19e-04     1s
  17   1.31779702e+03  1.20046906e+03  1.49e-07 2.27e-13  6.03e-04     1s
  18   1.28020357e+03  1.22902187e+03  5.81e-08 2.27e-13  2.63e-04     1s
  19   1.27083527e+03  1.23808992e+03  3.59e-08 2.27e-13  1.68e-04     1s
  20   1.26045820e+03  1.24606108e+03  1.22e-08 2.27e-13  7.40e-05     1s
  21   1.25602186e+03  1.25332681e+03  2.44e-09 4.55e-13  1.38e-05     1s
  22   1.25511746e+03  1.25401149e+03  6.67e-10 4.55e-13  5.68e-06     1s
  23   1.25489045e+03  1.25451124e+03  2.53e-10 2.27e-13  1.95e-06     1s
  24   1.25480277e+03  1.25467772e+03  2.43e-09 2.27e-13  6.43e-07     1s
  25   1.25475380e+03  1.25472811e+03  3.31e-10 2.27e-13  1.32e-07     1s
  26   1.25474960e+03  1.25474687e+03  1.69e-10 4.55e-13  1.40e-08     1s
  27   1.25474942e+03  1.25474942e+03  8.01e-11 2.27e-13  1.63e-11     1s

Barrier solved model in 27 iterations and 1.00 seconds (1.01 work units)
Optimal objective 1.25474942e+03

Crossover log...

   15647 DPushes remaining with DInf 0.0000000e+00                 1s
       0 DPushes remaining with DInf 0.0000000e+00                 1s

     565 PPushes remaining with PInf 0.0000000e+00                 1s
       0 PPushes remaining with PInf 0.0000000e+00                 1s

  Push phase complete: Pinf 0.0000000e+00, Dinf 3.3367933e-12      1s

Extra simplex iterations after uncrush: 2
Iteration    Objective       Primal Inf.    Dual Inf.      Time
    4162    1.2547494e+03   0.000000e+00   0.000000e+00      2s

Solved in 4162 iterations and 1.51 seconds (1.32 work units)
Optimal objective  1.254749420e+03

Gurobi 11.0.0 (linux64) logging started Sun Sep 22 11:03:07 2024

Set parameter LogFile to value "/lustre1/scratch/348/vsc34888/JointResearch/05.Models/06.Benchmarking/L.Cont_Investments_per_hour/IEEE118_mod1_ByStages_nc150/openStarNet_IEEE118_mod1_ByStages_nc150.log"
Set parameter Method to value 2
Set parameter MIPFocus to value 1
Set parameter Presolve to value 2
Set parameter RINS to value 100
Set parameter MIPGap to value 0.01
Set parameter Threads to value 36
Set parameter TimeLimit to value 259200
Set parameter IterationLimit to value 760000000
Gurobi Optimizer version 11.0.0 build v11.0.0rc2 (linux64 - "Rocky Linux 8.9 (Green Obsidian)")

CPU model: Intel(R) Xeon(R) Gold 6240 CPU @ 2.60GHz, instruction set [SSE2|AVX|AVX2|AVX512]
Thread count: 36 physical cores, 36 logical processors, using up to 36 threads

Optimize a model with 213153 rows, 157310 columns and 528260 nonzeros
Model fingerprint: 0x796e6d15
Coefficient statistics:
  Matrix range     [3e-04, 9e+03]
  Objective range  [1e+00, 1e+00]
  Bounds range     [1e-04, 3e+00]
  RHS range        [2e-04, 3e+00]
Presolve removed 160780 rows and 73119 columns
Presolve time: 0.31s
Presolved: 52373 rows, 86630 columns, 206159 nonzeros

Ordering time: 0.01s

Barrier statistics:
 AA' NZ     : 1.804e+05
 Factor NZ  : 6.851e+05 (roughly 60 MB of memory)
 Factor Ops : 9.904e+06 (less than 1 second per iteration)
 Threads    : 36

                  Objective                Residual
Iter       Primal          Dual         Primal    Dual     Compl     Time
   0   1.68720033e+07 -7.05260351e+08  9.32e+01 1.27e+02  1.90e+04     0s
   1   1.67550566e+06 -2.48017860e+08  7.83e+00 1.64e-12  2.32e+03     0s
   2   5.40690712e+05 -5.13814125e+07  1.60e+00 1.58e-12  4.07e+02     0s
   3   2.42599737e+05 -8.14579166e+06  4.84e-02 1.59e-12  4.62e+01     1s
   4   1.58998404e+05 -1.33698852e+06  5.14e-03 1.71e-12  7.93e+00     1s
   5   9.03753268e+04 -4.16336896e+05  2.31e-03 5.68e-13  2.68e+00     1s
   6   5.59589518e+04 -2.17939680e+05  1.17e-03 3.41e-13  1.45e+00     1s
   7   3.71278900e+04 -1.02226725e+05  6.20e-04 4.55e-13  7.35e-01     1s
   8   2.66932244e+04 -5.44419372e+04  3.44e-04 2.27e-13  4.28e-01     1s
   9   1.81187209e+04 -1.91643918e+04  1.30e-04 2.27e-13  1.97e-01     1s
  10   1.57396824e+04 -4.07882551e+03  8.20e-05 2.27e-13  1.04e-01     1s
  11   1.38917019e+04  3.58798334e+03  4.92e-05 2.27e-13  5.43e-02     1s
  12   1.26283984e+04  8.19490348e+03  2.99e-05 4.55e-13  2.34e-02     1s
  13   1.17594542e+04  9.02822734e+03  1.75e-05 4.55e-13  1.44e-02     1s
  14   1.12928718e+04  9.51812568e+03  1.12e-05 4.55e-13  9.36e-03     1s
  15   1.10058388e+04  9.90511708e+03  7.42e-06 2.27e-13  5.80e-03     1s
  16   1.07358125e+04  1.00930266e+04  3.94e-06 2.27e-13  3.39e-03     1s
  17   1.06098592e+04  1.02170928e+04  2.36e-06 2.27e-13  2.07e-03     1s
  18   1.05308102e+04  1.03264166e+04  1.39e-06 4.55e-13  1.08e-03     1s
  19   1.04783658e+04  1.03642560e+04  7.81e-07 2.27e-13  6.02e-04     1s
  20   1.04341389e+04  1.03885035e+04  2.72e-07 2.27e-13  2.41e-04     1s
  21   1.04186859e+04  1.04051430e+04  9.87e-08 4.55e-13  7.14e-05     1s
  22   1.04139790e+04  1.04076586e+04  4.97e-08 2.27e-13  3.33e-05     1s
  23   1.04109023e+04  1.04084563e+04  1.82e-08 2.27e-13  1.29e-05     1s
  24   1.04097117e+04  1.04088218e+04  6.13e-09 2.27e-13  4.69e-06     1s
  25   1.04094033e+04  1.04089478e+04  3.07e-09 3.41e-13  2.40e-06     1s
  26   1.04091408e+04  1.04090212e+04  1.01e-09 2.27e-13  6.31e-07     1s
  27   1.04090855e+04  1.04090792e+04  1.40e-09 4.55e-13  3.28e-08     1s
  28   1.04090845e+04  1.04090836e+04  3.22e-09 3.41e-13  4.83e-09     1s
  29   1.04090845e+04  1.04090844e+04  1.24e-09 4.55e-13  2.59e-10     1s

Barrier solved model in 29 iterations and 1.17 seconds (1.03 work units)
Optimal objective 1.04090845e+04

Crossover log...

   15143 DPushes remaining with DInf 0.0000000e+00                 1s
       0 DPushes remaining with DInf 0.0000000e+00                 1s

    1155 PPushes remaining with PInf 0.0000000e+00                 1s
       0 PPushes remaining with PInf 0.0000000e+00                 2s

  Push phase complete: Pinf 0.0000000e+00, Dinf 4.0534537e-11      2s

Iteration    Objective       Primal Inf.    Dual Inf.      Time
    5217    1.0409084e+04   0.000000e+00   0.000000e+00      2s

Solved in 5217 iterations and 1.75 seconds (1.25 work units)
Optimal objective  1.040908447e+04

Gurobi 11.0.0 (linux64) logging started Sun Sep 22 11:03:51 2024

Set parameter LogFile to value "/lustre1/scratch/348/vsc34888/JointResearch/05.Models/06.Benchmarking/L.Cont_Investments_per_hour/IEEE118_mod1_ByStages_nc150/openStarNet_IEEE118_mod1_ByStages_nc150.log"
Set parameter Method to value 2
Set parameter MIPFocus to value 1
Set parameter Presolve to value 2
Set parameter RINS to value 100
Set parameter MIPGap to value 0.01
Set parameter Threads to value 36
Set parameter TimeLimit to value 259200
Set parameter IterationLimit to value 760000000
Gurobi Optimizer version 11.0.0 build v11.0.0rc2 (linux64 - "Rocky Linux 8.9 (Green Obsidian)")

CPU model: Intel(R) Xeon(R) Gold 6240 CPU @ 2.60GHz, instruction set [SSE2|AVX|AVX2|AVX512]
Thread count: 36 physical cores, 36 logical processors, using up to 36 threads

Optimize a model with 213153 rows, 157310 columns and 528260 nonzeros
Model fingerprint: 0x796e6d15
Coefficient statistics:
  Matrix range     [3e-04, 9e+03]
  Objective range  [1e+00, 1e+00]
  Bounds range     [1e-04, 3e+00]
  RHS range        [2e-04, 3e+00]
Presolve removed 160780 rows and 73119 columns
Presolve time: 0.31s
Presolved: 52373 rows, 86630 columns, 206159 nonzeros

Ordering time: 0.01s

Barrier statistics:
 AA' NZ     : 1.804e+05
 Factor NZ  : 6.851e+05 (roughly 60 MB of memory)
 Factor Ops : 9.904e+06 (less than 1 second per iteration)
 Threads    : 36

                  Objective                Residual
Iter       Primal          Dual         Primal    Dual     Compl     Time
   0   1.68720033e+07 -7.05260351e+08  9.32e+01 1.27e+02  1.90e+04     0s
   1   1.67550566e+06 -2.48017860e+08  7.83e+00 1.64e-12  2.32e+03     0s
   2   5.40690712e+05 -5.13814125e+07  1.60e+00 1.58e-12  4.07e+02     0s
   3   2.42599737e+05 -8.14579166e+06  4.84e-02 1.59e-12  4.62e+01     0s
   4   1.58998404e+05 -1.33698852e+06  5.14e-03 1.71e-12  7.93e+00     1s
   5   9.03753268e+04 -4.16336896e+05  2.31e-03 5.68e-13  2.68e+00     1s
   6   5.59589518e+04 -2.17939680e+05  1.17e-03 3.41e-13  1.45e+00     1s
   7   3.71278900e+04 -1.02226725e+05  6.20e-04 4.55e-13  7.35e-01     1s
   8   2.66932244e+04 -5.44419372e+04  3.44e-04 2.27e-13  4.28e-01     1s
   9   1.81187209e+04 -1.91643918e+04  1.30e-04 2.27e-13  1.97e-01     1s
  10   1.57396824e+04 -4.07882551e+03  8.20e-05 2.27e-13  1.04e-01     1s
  11   1.38917019e+04  3.58798334e+03  4.92e-05 2.27e-13  5.43e-02     1s
  12   1.26283984e+04  8.19490348e+03  2.99e-05 4.55e-13  2.34e-02     1s
  13   1.17594542e+04  9.02822734e+03  1.75e-05 4.55e-13  1.44e-02     1s
  14   1.12928718e+04  9.51812568e+03  1.12e-05 4.55e-13  9.36e-03     1s
  15   1.10058388e+04  9.90511708e+03  7.42e-06 2.27e-13  5.80e-03     1s
  16   1.07358125e+04  1.00930266e+04  3.94e-06 2.27e-13  3.39e-03     1s
  17   1.06098592e+04  1.02170928e+04  2.36e-06 2.27e-13  2.07e-03     1s
  18   1.05308102e+04  1.03264166e+04  1.39e-06 4.55e-13  1.08e-03     1s
  19   1.04783658e+04  1.03642560e+04  7.81e-07 2.27e-13  6.02e-04     1s
  20   1.04341389e+04  1.03885035e+04  2.72e-07 2.27e-13  2.41e-04     1s
  21   1.04186859e+04  1.04051430e+04  9.87e-08 4.55e-13  7.14e-05     1s
  22   1.04139790e+04  1.04076586e+04  4.97e-08 2.27e-13  3.33e-05     1s
  23   1.04109023e+04  1.04084563e+04  1.82e-08 2.27e-13  1.29e-05     1s
  24   1.04097117e+04  1.04088218e+04  6.13e-09 2.27e-13  4.69e-06     1s
  25   1.04094033e+04  1.04089478e+04  3.07e-09 3.41e-13  2.40e-06     1s
  26   1.04091408e+04  1.04090212e+04  1.01e-09 2.27e-13  6.31e-07     1s
  27   1.04090855e+04  1.04090792e+04  1.40e-09 4.55e-13  3.28e-08     1s
  28   1.04090845e+04  1.04090836e+04  3.22e-09 3.41e-13  4.83e-09     1s
  29   1.04090845e+04  1.04090844e+04  1.24e-09 4.55e-13  2.59e-10     1s

Barrier solved model in 29 iterations and 1.05 seconds (1.03 work units)
Optimal objective 1.04090845e+04

Crossover log...

   15143 DPushes remaining with DInf 0.0000000e+00                 1s
       0 DPushes remaining with DInf 0.0000000e+00                 1s

    1155 PPushes remaining with PInf 0.0000000e+00                 1s
       0 PPushes remaining with PInf 0.0000000e+00                 1s

  Push phase complete: Pinf 0.0000000e+00, Dinf 4.0534537e-11      1s

Iteration    Objective       Primal Inf.    Dual Inf.      Time
    5217    1.0409084e+04   0.000000e+00   0.000000e+00      2s

Solved in 5217 iterations and 1.58 seconds (1.25 work units)
Optimal objective  1.040908447e+04
